12
48
878
844
1009
879
1051
1080
1145
995
881
1107
1000
1041
71	107
360	265
666	650
432	468
980	923
864	832
277	290
160	245
73	42
957	892
608	648
717	642
582	615
337	408
276	254
670	759
64	60
84	16
850	883
944	1013
316	294
733	643
26	123
426	488
13	85
357	424
309	370
370	272
131	195
982	1081
344	405
517	504
775	818
994	1084
27	36
537	469
907	918
877	921
261	336
951	1031
709	803
233	185
178	250
67	1
420	396
906	871
483	510
1000	1017
